0 51 56
1 50 62
2 58 62
3 58 61
4 50 59
5 59 59
6 55 58
7 59 65
8 59 64
9 52 63
10 61 66
11 57 66
12 58 67
13 60 68
14 54 67
15 58 65
16 53 62
17 58 59
18 51 56
19 51 58
20 48 59
21 53 55
22 53 53
23 50 51
24 24 48
25 34 50
26 48 50
27 47 49
28 38 46
29 31 45
30 46 45
31 35 42
32 42 41
33 43 43
34 35 43
35 18 41
36 27 41
37 33 40
38 39 39
39 33 38
40 19 36
41 21 34
42 19 31
43 13 28
44 22 26
45 19 23
46 10 22
47 12 22
48 13 19
49 16 16
50 19 18
51 16 18
52 5 19
53 13 17
54 3 16
55 10 14
56 4 12
57 2 10
58 9 11
59 7 8
60 2 5
61 6 5
62 6 5
63 5 4
64 2 4
65 1 1
66 1 0
67 1 0
68 1 0
69 1 0
70 2 1
71 1 0
72 1 0
73 2 1
74 1 1
75 1 0
76 1 0
77 1 0
78 1 0
79 2 1
80 1 0
81 2 1
82 1 0
83 1 0
84 1 0
85 1 0
86 1 0
87 1 0
88 1 0
89 1 0
90 1 0
91 1 1
92 1 0
93 1 0
94 1 0
95 1 0
96 1 0
97 1 0
98 1 0
99 1 0
100 1 0
101 1 0
102 2 1
103 1 1
104 1 0
105 1 1

